Input: forumt-14crafe.fixed040-Forb.dzn
============================================================
Total Runtime: 0.4500 seconds
Input parsing: 0.0269 seconds
Constraint building: 0.2053 seconds
MaxSAT solving: 0.0521 seconds
============================================================

Total variables: 73935
Total clauses: 160025
MaxSAT found with cost: N/A
NO SOLUTION FOUND
